(set-logic QF_S)
(declare-fun var0 () String)
(declare-fun var1 () String)
(declare-fun var2 () String)
(declare-fun var3 () String)
(declare-fun var4 () String)
(declare-fun var5 () String)
(declare-fun var6 () String)
(declare-fun var7 () String)
(declare-fun var8 () String)
(declare-fun var9 () String)
(declare-fun var10 () String)
(declare-fun var11 () String)
(declare-fun var12 () String)
(declare-fun var13 () String)
(declare-fun var14 () String)
(declare-fun var15 () String)
(declare-fun var16 () String)
(declare-fun var17 () String)
(declare-fun var18 () String)
(declare-fun var19 () String)
(declare-fun var20 () String)
(declare-fun var21 () String)
(declare-fun var22 () String)
(declare-fun var23 () String)
(declare-fun var24 () String)
(declare-fun var25 () String)
(declare-fun var26 () String)
(declare-fun var27 () String)
(declare-fun var28 () String)
(declare-fun var29 () String)
(declare-fun var30 () String)
(declare-fun var31 () String)
(declare-fun var32 () String)
(declare-fun var33 () String)
(declare-fun var34 () String)
(declare-fun var35 () String)
(declare-fun var36 () String)
(declare-fun var37 () String)
(declare-fun var38 () String)
(declare-fun var39 () String)
(declare-fun var40 () String)
(declare-fun var41 () String)
(declare-fun var42 () String)
(declare-fun var43 () String)
(declare-fun var44 () String)
(declare-fun var45 () String)
(declare-fun var46 () String)
(declare-fun var47 () String)
(declare-fun var48 () String)
(declare-fun var49 () String)
(declare-fun var50 () String)
(declare-fun var51 () String)
(declare-fun var52 () String)
(declare-fun var53 () String)
(declare-fun var54 () String)
(declare-fun var55 () String)
(declare-fun var56 () String)
(declare-fun var57 () String)
(declare-fun var58 () String)
(declare-fun var59 () String)
(declare-fun var60 () String)
(assert (= var0 (str.++ var1 var2)))
(assert (= var2 (str.++ var3 var4)))
(assert (= var4 (str.++ var5 var6)))
(assert (= var6 (str.++ var7 var8)))
(assert (= var8 (str.++ var9 var10)))
(assert (= var10 (str.++ var11 var12)))
(assert (= var12 (str.++ var13 var14)))
(assert (= var14 (str.++ var15 var16)))
(assert (= var16 (str.++ var17 var18)))
(assert (= var18 (str.++ var19 var20)))
(assert (= var20 (str.++ var21 var22)))
(assert (= var22 (str.++ var23 var24)))
(assert (= var24 (str.++ var25 var26)))
(assert (= var26 (str.++ var27 var28)))
(assert (= var28 (str.++ var29 var30)))
(assert (= var30 (str.++ var31 var32)))
(assert (= var32 (str.++ var33 var34)))
(assert (= var34 (str.++ var35 var36)))
(assert (= var36 (str.++ var37 var38)))
(assert (= var38 (str.++ var39 var40)))
(assert (= var40 (str.++ var41 var42)))
(assert (= var42 (str.++ var43 var44)))
(assert (= var44 (str.++ var45 var46)))
(assert (= var46 (str.++ var47 var48)))
(assert (= var48 (str.++ var49 var50)))
(assert (= var50 (str.++ var51 var52)))
(assert (= var52 (str.++ var53 var54)))
(assert (= var54 (str.++ var55 var56)))
(assert (= var56 (str.++ var57 var58)))
(assert (= var58 (str.++ var59 var60)))
(assert (= var0 "solution"))
(assert (= "w" (str.at var4 50)))
(assert (= "*" (str.at var2 509)))
(assert (= "p" (str.at var47 975)))
(assert (= "c" (str.at var46 510)))
(assert (= "z" (str.at var39 937)))
(assert (= "J" (str.at var17 699)))
(assert (= "`" (str.at var25 760)))
(assert (= "0" (str.at var2 58)))
(assert (= "V" (str.at var28 1000)))
(assert (= "{" (str.at var17 571)))
(assert (= "R" (str.at var37 878)))
(assert (= "9" (str.at var37 339)))
(assert (= "w" (str.at var53 518)))
(assert (= "s" (str.at var38 929)))
(assert (= "2" (str.at var33 983)))
(assert (= "X" (str.at var29 787)))
(assert (= """" (str.at var56 167)))
(assert (= "y" (str.at var56 249)))
(assert (= "Q" (str.at var43 554)))
(assert (= ">" (str.at var7 205)))
(assert (= "w" (str.at var23 610)))
(assert (= "?" (str.at var51 34)))
(assert (= "]" (str.at var0 831)))
(assert (= "[" (str.at var8 739)))
(assert (= "4" (str.at var11 700)))
(assert (= "i" (str.at var59 802)))
(assert (= "m" (str.at var18 340)))
(assert (= "[" (str.at var40 932)))
(assert (= "R" (str.at var45 827)))
(assert (= "C" (str.at var20 688)))
(assert (= "+" (str.at var7 232)))
(assert (= "~" (str.at var26 374)))
(assert (= "4" (str.at var47 378)))
(assert (= ">" (str.at var16 485)))
(assert (= "=" (str.at var28 68)))
(assert (= "U" (str.at var23 719)))
(assert (= "=" (str.at var11 455)))
(assert (= "Q" (str.at var54 421)))
(assert (= "N" (str.at var14 343)))
(assert (= "l" (str.at var55 440)))
(assert (= "m" (str.at var9 249)))
(assert (= "W" (str.at var30 30)))
(assert (= "}" (str.at var16 308)))
(assert (= "a" (str.at var20 364)))
(assert (= "T" (str.at var52 877)))
(assert (= """" (str.at var35 187)))
(assert (= ")" (str.at var48 235)))
(assert (= "`" (str.at var37 811)))
(assert (= "x" (str.at var54 440)))
(assert (= "i" (str.at var36 399)))
(assert (= "'" (str.at var0 55)))
(assert (= "3" (str.at var13 319)))
(assert (= "I" (str.at var14 787)))
(assert (= "l" (str.at var8 821)))
(assert (= "E" (str.at var15 415)))
(assert (= "}" (str.at var39 573)))
(assert (= "|" (str.at var58 787)))
(assert (= "~" (str.at var0 398)))
(assert (= "%" (str.at var39 209)))
(assert (= "z" (str.at var20 263)))
(assert (= "W" (str.at var11 854)))
(assert (= "b" (str.at var3 567)))
(assert (= "f" (str.at var34 977)))
(assert (= "u" (str.at var13 845)))
(assert (= "Z" (str.at var55 262)))
(assert (= "x" (str.at var2 939)))
(assert (= "1" (str.at var47 190)))
(assert (= "2" (str.at var55 100)))
(assert (= "i" (str.at var18 838)))
(assert (= "U" (str.at var13 878)))
(assert (= "\\" (str.at var30 599)))
(assert (= "]" (str.at var8 965)))
(assert (= "," (str.at var42 938)))
(assert (= "e" (str.at var43 168)))
(assert (= "." (str.at var44 486)))
(assert (= "~" (str.at var2 368)))
(assert (= "p" (str.at var40 961)))
(assert (= "j" (str.at var32 984)))
(assert (= "U" (str.at var11 7)))
(assert (= "b" (str.at var18 188)))
(assert (= "c" (str.at var26 747)))
(assert (= ":" (str.at var59 846)))
(assert (= "W" (str.at var34 998)))
(assert (= "y" (str.at var57 936)))
(assert (= "}" (str.at var40 104)))
(assert (= "3" (str.at var11 896)))
(assert (= "%" (str.at var29 882)))
(assert (= "H" (str.at var8 385)))
(assert (= "7" (str.at var45 236)))
(assert (= "<" (str.at var32 570)))
(assert (= "]" (str.at var57 144)))
(assert (= "<" (str.at var8 172)))
(assert (= "+" (str.at var16 979)))
(assert (= "[" (str.at var21 289)))
(assert (= "C" (str.at var1 179)))
(assert (= "A" (str.at var31 384)))
(assert (= ">" (str.at var31 83)))
(assert (= "f" (str.at var37 513)))
(assert (= "3" (str.at var12 94)))
(assert (= "4" (str.at var36 621)))
(assert (= "%" (str.at var6 63)))
(assert (= "l" (str.at var43 768)))
(assert (= "c" (str.at var7 796)))
(assert (= "w" (str.at var23 673)))
(assert (= "W" (str.at var55 0)))
(assert (= "6" (str.at var16 695)))
(assert (= "G" (str.at var8 141)))
(assert (= "P" (str.at var15 176)))
(assert (= "H" (str.at var19 135)))
(assert (= "#" (str.at var0 930)))
(assert (= "7" (str.at var35 793)))
(assert (= "#" (str.at var39 312)))
(assert (= "[" (str.at var48 631)))
(assert (= "9" (str.at var1 129)))
(assert (= "O" (str.at var14 107)))
(assert (= "!" (str.at var16 949)))
(assert (= "C" (str.at var7 252)))
(assert (= "I" (str.at var26 998)))
(assert (= "3" (str.at var50 254)))
(assert (= "I" (str.at var37 318)))
(assert (= "," (str.at var53 395)))
(assert (= "V" (str.at var25 977)))
(assert (= "R" (str.at var42 307)))
(assert (= "," (str.at var59 466)))
(assert (= "F" (str.at var39 963)))
(assert (= "\\" (str.at var41 473)))
(assert (= "m" (str.at var56 699)))
(assert (= "@" (str.at var1 136)))
(assert (= "^" (str.at var35 102)))
(assert (= "b" (str.at var28 311)))
(assert (= """" (str.at var20 467)))
(assert (= "3" (str.at var16 616)))
(assert (= "H" (str.at var28 719)))
(assert (= "6" (str.at var36 767)))
(assert (= "$" (str.at var54 76)))
(assert (= "L" (str.at var13 751)))
(assert (= "." (str.at var7 583)))
(assert (= "R" (str.at var41 759)))
(assert (= "=" (str.at var18 148)))
(assert (= "7" (str.at var34 415)))
(assert (= "$" (str.at var40 719)))
(assert (= "*" (str.at var56 344)))
(assert (= "}" (str.at var54 823)))
(assert (= "C" (str.at var12 830)))
(assert (= "=" (str.at var2 736)))
(assert (= "W" (str.at var51 213)))
(assert (= "z" (str.at var29 605)))
(assert (= "S" (str.at var33 160)))
(assert (= "O" (str.at var55 426)))
(assert (= "E" (str.at var57 398)))
(assert (= "h" (str.at var25 785)))
(assert (= "Q" (str.at var25 452)))
(assert (= "u" (str.at var33 498)))
(assert (= "&" (str.at var31 817)))
(assert (= "W" (str.at var30 920)))
(assert (= "y" (str.at var38 289)))
(assert (= "v" (str.at var12 397)))
(assert (= "]" (str.at var14 48)))
(assert (= "#" (str.at var11 895)))
(assert (= "t" (str.at var19 858)))
(assert (= "t" (str.at var59 576)))
(assert (= "{" (str.at var16 536)))
(assert (= "E" (str.at var10 561)))
(assert (= "t" (str.at var7 154)))
(assert (= "}" (str.at var25 577)))
(assert (= "~" (str.at var31 318)))
(assert (= "q" (str.at var1 997)))
(assert (= "b" (str.at var56 438)))
(assert (= "*" (str.at var23 581)))
(assert (= "^" (str.at var55 651)))
(assert (= "+" (str.at var46 539)))
(assert (= "=" (str.at var9 41)))
(assert (= "|" (str.at var3 146)))
(assert (= "b" (str.at var48 975)))
(assert (= "d" (str.at var40 585)))
(assert (= "q" (str.at var27 554)))
(assert (= "X" (str.at var29 615)))
(assert (= "G" (str.at var27 551)))
(assert (= "i" (str.at var50 788)))
(assert (= "m" (str.at var43 724)))
(assert (= "5" (str.at var37 264)))
(assert (= "!" (str.at var7 510)))
(assert (= ";" (str.at var48 182)))
(assert (= "m" (str.at var13 188)))
(assert (= "w" (str.at var21 293)))
(assert (= "R" (str.at var50 917)))
(assert (= "9" (str.at var37 948)))
(assert (= "_" (str.at var17 156)))
(assert (= "e" (str.at var37 41)))
(assert (= "g" (str.at var19 859)))
(assert (= "a" (str.at var23 243)))
(assert (= "[" (str.at var16 577)))
(assert (= "I" (str.at var28 452)))
(assert (= "G" (str.at var56 178)))
(assert (= "'" (str.at var55 120)))
(assert (= "'" (str.at var20 267)))
(assert (= "]" (str.at var55 740)))
(assert (= "O" (str.at var13 350)))
(assert (= "~" (str.at var39 484)))
(assert (= "8" (str.at var7 46)))
(assert (= "5" (str.at var13 440)))
(assert (= "]" (str.at var45 190)))
(assert (= ")" (str.at var23 654)))
(assert (= "." (str.at var50 4)))
(assert (= "F" (str.at var28 539)))
(assert (= "q" (str.at var29 546)))
(assert (= "U" (str.at var44 734)))
(assert (= "Q" (str.at var41 46)))
(assert (= "*" (str.at var54 328)))
(assert (= "S" (str.at var33 83)))
(assert (= "*" (str.at var29 451)))
(assert (= "[" (str.at var53 692)))
(assert (= "$" (str.at var57 742)))
(assert (= "x" (str.at var7 159)))
(assert (= "s" (str.at var20 572)))
(assert (= "4" (str.at var14 803)))
(assert (= "1" (str.at var45 297)))
(assert (= "*" (str.at var24 187)))
(assert (= "d" (str.at var31 717)))
(assert (= "(" (str.at var53 552)))
(assert (= "Y" (str.at var45 234)))
(assert (= "I" (str.at var51 928)))
(assert (= "N" (str.at var27 768)))
(assert (= "1" (str.at var39 660)))
(assert (= "v" (str.at var3 966)))
(assert (= "k" (str.at var43 624)))
(assert (= "7" (str.at var48 293)))
(assert (= "Y" (str.at var51 524)))
(assert (= "+" (str.at var1 758)))
(assert (= "^" (str.at var16 296)))
(assert (= "u" (str.at var40 794)))
(assert (= "v" (str.at var10 762)))
(assert (= ">" (str.at var57 523)))
(assert (= ">" (str.at var12 866)))
(assert (= "o" (str.at var38 520)))
(assert (= "9" (str.at var10 325)))
(assert (= "q" (str.at var2 535)))
(assert (= "$" (str.at var35 210)))
(assert (= "[" (str.at var55 662)))
(assert (= "/" (str.at var24 336)))
(assert (= "~" (str.at var27 895)))
(assert (= ":" (str.at var37 21)))
(assert (= "y" (str.at var26 106)))
(assert (= "i" (str.at var38 771)))
(assert (= "w" (str.at var2 655)))
(assert (= "}" (str.at var59 32)))
(assert (= "2" (str.at var0 790)))
(assert (= "9" (str.at var16 39)))
(assert (= "8" (str.at var47 305)))
(assert (= "^" (str.at var30 209)))
(assert (= "W" (str.at var21 298)))
(assert (= "f" (str.at var48 894)))
(assert (= "`" (str.at var37 680)))
(assert (= "j" (str.at var39 921)))
(assert (= "%" (str.at var45 230)))
(assert (= "I" (str.at var53 186)))
(assert (= "N" (str.at var59 115)))
(assert (= ")" (str.at var27 113)))
(assert (= "g" (str.at var30 62)))
(assert (= "," (str.at var20 108)))
(assert (= "W" (str.at var8 629)))
(assert (= "7" (str.at var0 186)))
(assert (= "I" (str.at var14 314)))
(assert (= "Q" (str.at var25 503)))
(assert (= "G" (str.at var40 840)))
(assert (= "Z" (str.at var18 271)))
(assert (= "k" (str.at var51 77)))
(assert (= "N" (str.at var44 857)))
(assert (= "}" (str.at var41 49)))
(assert (= "x" (str.at var27 434)))
(assert (= "w" (str.at var16 275)))
(assert (= "u" (str.at var8 407)))
(assert (= "s" (str.at var15 96)))
(assert (= "*" (str.at var60 223)))
(assert (= "O" (str.at var59 968)))
(assert (= "g" (str.at var51 735)))
(assert (= "=" (str.at var55 370)))
(assert (= "5" (str.at var56 120)))
(assert (= "," (str.at var43 785)))
(assert (= "s" (str.at var24 734)))
(assert (= "L" (str.at var9 755)))
(assert (= "x" (str.at var12 104)))
(assert (= "]" (str.at var20 660)))
(assert (= "r" (str.at var0 781)))
(assert (= "?" (str.at var10 991)))
(assert (= "C" (str.at var37 841)))
(assert (= "U" (str.at var47 481)))
(assert (= "l" (str.at var37 527)))
(assert (= "w" (str.at var38 445)))
(assert (= "~" (str.at var8 338)))
(assert (= "L" (str.at var12 468)))
(assert (= "!" (str.at var41 947)))
(assert (= "9" (str.at var7 895)))
(assert (= "[" (str.at var58 480)))
(assert (= "~" (str.at var56 738)))
(assert (= "S" (str.at var59 252)))
(assert (= "8" (str.at var20 478)))
(assert (= "c" (str.at var9 601)))
(assert (= "W" (str.at var8 53)))
(assert (= "0" (str.at var47 630)))
(assert (= "2" (str.at var11 931)))
(assert (= "*" (str.at var32 886)))
(assert (= "4" (str.at var39 23)))
(assert (= "O" (str.at var35 646)))
(assert (= "8" (str.at var28 608)))
(assert (= "i" (str.at var54 266)))
(assert (= "b" (str.at var20 442)))
(assert (= "o" (str.at var52 382)))
(assert (= "K" (str.at var44 673)))
(assert (= "_" (str.at var4 198)))
(assert (= "z" (str.at var40 185)))
(assert (= "T" (str.at var36 772)))
(assert (= "+" (str.at var8 349)))
(assert (= "b" (str.at var40 64)))
(assert (= "z" (str.at var41 830)))
(assert (= "c" (str.at var51 29)))
(assert (= "!" (str.at var1 33)))
(assert (= "i" (str.at var48 417)))
(assert (= "z" (str.at var42 559)))
(assert (= "<" (str.at var20 127)))
(assert (= "+" (str.at var31 939)))
(assert (= "U" (str.at var8 761)))
(assert (= "p" (str.at var45 356)))
(assert (= "L" (str.at var9 895)))
(assert (= "A" (str.at var40 621)))
(assert (= "S" (str.at var51 520)))
(assert (= "_" (str.at var6 455)))
(assert (= "Y" (str.at var51 82)))
(assert (= "A" (str.at var27 668)))
(assert (= "d" (str.at var23 578)))
(assert (= "Z" (str.at var23 152)))
(assert (= "a" (str.at var40 727)))
(assert (= "%" (str.at var52 970)))
(assert (= "g" (str.at var0 496)))
(assert (= "7" (str.at var11 592)))
(assert (= "-" (str.at var52 812)))
(assert (= "E" (str.at var14 144)))
(assert (= "A" (str.at var37 274)))
(assert (= "w" (str.at var42 440)))
(assert (= "G" (str.at var38 493)))
(assert (= ")" (str.at var0 782)))
(assert (= "<" (str.at var23 874)))
(assert (= "<" (str.at var44 694)))
(assert (= "Q" (str.at var46 411)))
(assert (= "<" (str.at var29 951)))
(assert (= "&" (str.at var19 632)))
(assert (= "L" (str.at var35 658)))
(assert (= ")" (str.at var26 370)))
(assert (= "." (str.at var35 844)))
(assert (= "+" (str.at var25 22)))
(assert (= "D" (str.at var21 685)))
(assert (= "W" (str.at var54 684)))
(assert (= "8" (str.at var24 563)))
(assert (= "P" (str.at var13 656)))
(assert (= "k" (str.at var51 519)))
(assert (= "i" (str.at var26 281)))
(assert (= "4" (str.at var21 384)))
(assert (= "<" (str.at var10 297)))
(assert (= "c" (str.at var36 957)))
(assert (= "@" (str.at var34 642)))
(assert (= "6" (str.at var47 915)))
(assert (= "7" (str.at var34 111)))
(assert (= "x" (str.at var6 852)))
(assert (= "k" (str.at var35 734)))
(assert (= "q" (str.at var21 626)))
(assert (= "k" (str.at var7 90)))
(assert (= "J" (str.at var59 306)))
(assert (= "4" (str.at var6 321)))
(assert (= "A" (str.at var15 144)))
(assert (= "z" (str.at var12 24)))
(assert (= "[" (str.at var42 523)))
(assert (= "0" (str.at var38 478)))
(assert (= "Z" (str.at var49 667)))
(assert (= "{" (str.at var53 798)))
(assert (= "'" (str.at var52 11)))
(assert (= "5" (str.at var7 300)))
(assert (= "H" (str.at var38 152)))
(assert (= "6" (str.at var7 222)))
(assert (= "A" (str.at var4 158)))
(assert (= "*" (str.at var31 44)))
(assert (= "p" (str.at var11 868)))
(assert (= "!" (str.at var12 127)))
(assert (= "H" (str.at var57 492)))
(assert (= "L" (str.at var57 575)))
(assert (= "," (str.at var56 38)))
(assert (= "T" (str.at var5 964)))
(assert (= "B" (str.at var57 9)))
(assert (= "P" (str.at var60 883)))
(assert (= "(" (str.at var48 462)))
(assert (= "Y" (str.at var22 63)))
(assert (= "x" (str.at var7 569)))
(assert (= "1" (str.at var22 866)))
(assert (= "s" (str.at var30 400)))
(assert (= ":" (str.at var12 41)))
(assert (= "q" (str.at var33 183)))
(assert (= "q" (str.at var2 74)))
(assert (= "`" (str.at var28 240)))
(assert (= """" (str.at var38 519)))
(assert (= "a" (str.at var36 714)))
(assert (= "w" (str.at var19 673)))
(assert (= "$" (str.at var57 449)))
(check-sat)
(get-model)